SAT
-1 -100 -99 -98 -97 -96 -95 88 -94 -93 -30 63 92 33 84 -25 -9 -55 59 -70 -68 19 16 -49 -23 74 76 -34 43 -56 -60 -67 86 -35 15 -66 39 -80 -7 82 -73 37 -11 -83 -13 -24 -53 -6 18 4 5 -17 -87 71 32 -64 -38 47 81 10 -48 -57 -58 28 29 -54 -31 -22 51 -2 41 -26 -20 -46 21 -62 27 -45 40 -72 -8 90 -61 -36 3 -78 91 79 -85 -44 -52 -89 14 -75 50 12 42 69 65 77 0
